(set-info :smt-lib-version 2.6)
(set-logic QF_UFLRA)
(set-info :source |
MathSat group

|)
(set-info :category "random")
(set-info :status sat)
(declare-fun x0 () Real)
(declare-fun x1 () Real)
(declare-fun x2 () Real)
(declare-fun x3 () Real)
(declare-fun x4 () Real)
(declare-fun x5 () Real)
(declare-fun x6 () Real)
(declare-fun x7 () Real)
(declare-fun x8 () Real)
(declare-fun x9 () Real)
(declare-fun x10 () Real)
(declare-fun x11 () Real)
(declare-fun x12 () Real)
(declare-fun x13 () Real)
(declare-fun x14 () Real)
(declare-fun x15 () Real)
(declare-fun x16 () Real)
(declare-fun x17 () Real)
(declare-fun x18 () Real)
(declare-fun x19 () Real)
(declare-fun x20 () Real)
(declare-fun x21 () Real)
(declare-fun x22 () Real)
(declare-fun x23 () Real)
(declare-fun x24 () Real)
(declare-fun x25 () Real)
(declare-fun x26 () Real)
(declare-fun x27 () Real)
(declare-fun x28 () Real)
(declare-fun x29 () Real)
(declare-fun f0_1 (Real) Real)
(declare-fun f0_2 (Real Real) Real)
(declare-fun f0_3 (Real Real Real) Real)
(declare-fun f0_4 (Real Real Real Real) Real)
(declare-fun P0 () Bool)
(declare-fun P1 () Bool)
(declare-fun P2 () Bool)
(declare-fun P3 () Bool)
(declare-fun P4 () Bool)
(declare-fun P5 () Bool)
(declare-fun P6 () Bool)
(declare-fun P7 () Bool)
(declare-fun P8 () Bool)
(declare-fun P9 () Bool)
(declare-fun P10 () Bool)
(declare-fun P11 () Bool)
(declare-fun P12 () Bool)
(declare-fun P13 () Bool)
(declare-fun P14 () Bool)
(declare-fun P15 () Bool)
(declare-fun P16 () Bool)
(declare-fun P17 () Bool)
(declare-fun P18 () Bool)
(declare-fun P19 () Bool)
(declare-fun P20 () Bool)
(declare-fun P21 () Bool)
(declare-fun P22 () Bool)
(declare-fun P23 () Bool)
(declare-fun P24 () Bool)
(declare-fun P25 () Bool)
(declare-fun P26 () Bool)
(declare-fun P27 () Bool)
(declare-fun P28 () Bool)
(declare-fun P29 () Bool)
(assert (let ((?v_85 (= (+ (- (* 19 x20) (* 22 x9)) (* 29 x23)) 0)) (?v_9 (= (- (+ (* 34 x10) (* 28 x9)) (* 7 x24)) 27)) (?v_104 (<= (- (- (* 38 x29) (* 30 x14)) (* 42 x16)) 28)) (?v_58 (<= (- (- (* 10 x4) (* 15 x28)) (* 27 x3)) 22)) (?v_76 (* 40 x25)) (?v_13 (* 33 x26))) (let ((?v_80 (<= (- (- ?v_13 (* 28 x24)) ?v_76) 36)) (?v_61 (distinct (+ (- (* 37 x2) (* 32 x6)) (* 9 x9)) 12)) (?v_95 (<= (- (+ (* 23 x13) (* 15 x23)) (* 2 x25)) 35)) (?v_15 (= (+ (- (* 12 x24) (* 3 x5)) (* 30 x7)) 28)) (?v_55 (= (+ (- (* 25 x12) (* 4 x20)) (* 32 x27)) 12)) (?v_48 (= (- (- (* 33 x6) (* 10 x13)) (* 3 x12)) 33)) (?v_21 (distinct x13 x29)) (?v_122 (distinct (f0_1 x22) x16)) (?v_10 (= x18 x14)) (?v_51 (distinct (f0_2 x27 x18) (f0_2 x3 x23))) (?v_69 (distinct x26 x11)) (?v_47 (f0_1 x23))) (let ((?v_134 (= (f0_1 x14) ?v_47)) (?v_12 (f0_1 x9))) (let ((?v_20 (distinct (f0_2 x0 x24) ?v_12)) (?v_27 (= (f0_1 x12) ?v_12)) (?v_5 (distinct (f0_2 x15 x4) (f0_2 x7 x13))) (?v_90 (= (f0_2 x14 x19) (f0_2 x12 x13))) (?v_39 (distinct (f0_2 x11 x10) (f0_1 x25))) (?v_4 (f0_1 x28))) (let ((?v_75 (= (f0_2 x15 x3) ?v_4)) (?v_65 (f0_1 x5))) (let ((?v_77 (= ?v_65 x4)) (?v_44 (f0_1 x13))) (let ((?v_117 (= x23 ?v_44)) (?v_88 (= (f0_2 x0 x3) x11)) (?v_138 (distinct x29 x18)) (?v_105 (= ?v_47 ?v_65)) (?v_52 (distinct x21 (f0_1 x21))) (?v_11 (= ?v_12 (f0_2 x26 x6))) (?v_36 (f0_1 x15))) (let ((?v_142 (= ?v_36 (f0_1 x11))) (?v_14 (distinct ?v_36 (f0_2 x4 x27))) (?v_106 (distinct (f0_2 x5 x17) x5)) (?v_103 (distinct (f0_2 x23 x17) ?v_44)) (?v_53 (= (f0_1 x16) (f0_1 x20))) (?v_41 (= (f0_1 x8) (f0_2 x1 x19))) (?v_87 (= (f0_1 x4) (f0_2 x0 x29))) (?v_97 (distinct (f0_2 x22 x12) (f0_2 x18 x2))) (?v_28 (distinct x11 (f0_2 x8 x10))) (?v_62 (= x25 (f0_1 x0))) (?v_45 (= ?v_4 (f0_2 x7 x4))) (?v_1 (not P14)) (?v_6 (not ?v_134)) (?v_23 (not P26)) (?v_18 (not P15)) (?v_24 (not P1)) (?v_146 (not P8)) (?v_74 (not P20)) (?v_68 (not P11))) (let ((?v_92 (not ?v_45)) (?v_19 (not ?v_5)) (?v_16 (not ?v_88)) (?v_57 (not P3)) (?v_17 (not ?v_106)) (?v_116 (not P9)) (?v_66 (not P22)) (?v_136 (not ?v_11)) (?v_56 (not P23)) (?v_50 (not ?v_15)) (?v_137 (not P21)) (?v_102 (not P6)) (?v_54 (not P18)) (?v_99 (not P29)) (?v_148 (not ?v_20)) (?v_72 (not ?v_21)) (?v_71 (not P16)) (?v_35 (not ?v_85)) (?v_100 (not ?v_48)) (?v_29 (not ?v_87)) (?v_32 (not ?v_10)) (?v_40 (not ?v_142)) (?v_60 (not P19)) (?v_59 (not ?v_39)) (?v_43 (not ?v_51)) (?v_112 (not ?v_41)) (?v_46 (not ?v_103)) (?v_126 (not ?v_105)) (?v_83 (not P5)) (?v_114 (not ?v_53)) (?v_118 (not ?v_55)) (?v_82 (not P12)) (?v_108 (not P17)) (?v_152 (not ?v_61)) (?v_110 (not ?v_58)) (?v_101 (not ?v_104)) (?v_67 (not ?v_62)) (?v_70 (not P4)) (?v_89 (not P28)) (?v_135 (not ?v_69)) (?v_119 (not ?v_75)) (?v_91 (not ?v_77)) (?v_133 (not P7)) (?v_81 (not ?v_80)) (?v_96 (not P27)) (?v_93 (not P0)) (?v_120 (not P25)) (?v_86 (not ?v_14)) (?v_132 (not ?v_28)) (?v_139 (not P10)) (?v_123 (not ?v_95)) (?v_145 (not ?v_97)) (?v_129 (not ?v_27)) (?v_154 (not ?v_90)) (?v_127 (not P2)) (?v_109 (not P24)) (?v_124 (not ?v_138)) (?v_113 (not ?v_52))) (let ((?v_121 (or ?v_14 ?v_54)) (?v_151 (not ?v_122)) (?v_130 (not ?v_9)) (?v_140 (not ?v_117)) (?v_150 (not P13)) (?v_0 (< (+ (* 12 x9) (* 5 x6) (* 13 x3)) 21)) (?v_2 (<= (- (+ (* 21 x8) (* 37 x13)) (* 17 x12)) (- 7))) (?v_30 (distinct (- (+ (* 10 x29) (* 3 x14)) (* 9 x12)) (- 37)))) (let ((?v_3 (not ?v_30)) (?v_31 (not ?v_2)) (?v_26 (<= (- (- (* (- 5) x10) (* 36 x28)) (* 18 x5)) 0))) (let ((?v_8 (not ?v_26)) (?v_22 (<= (+ (- (* (- 24) x8) (* 10 x21)) (* 2 x9)) (- 43))) (?v_7 (<= (+ (- (* (- 12) x19) (* 17 x22)) (* 30 x3)) (- 36)))) (let ((?v_107 (not ?v_7)) (?v_33 (< (- (- (* (- 24) x24) (* 30 x6)) (* 14 x9)) (- 41))) (?v_73 (< (- (- (* (- 42) x21) (* 14 x19)) (* 41 x14)) (- 35)))) (let ((?v_79 (not ?v_73)) (?v_98 (< (- (- x11 (* 19 x21)) (* 30 x17)) (- 44)))) (let ((?v_147 (not ?v_98)) (?v_64 (distinct (- (- (* (- 22) x1) ?v_13) (* 33 x7)) 42))) (let ((?v_128 (not ?v_64)) (?v_49 (= (+ (* (- 13) x6) (* 32 x29) (* 38 x11)) (- 21))) (?v_25 (= (- (+ (* (- 5) x22) (* 33 x16)) (* 41 x9)) (- 32))) (?v_144 (not ?v_22)) (?v_34 (<= (- (* 16 x24) (* 38 x13)) (- 5)))) (let ((?v_149 (not ?v_25)) (?v_42 (< (+ (- (* 18 x18) (* 6 x18)) (* 27 x20)) (- 29)))) (let ((?v_37 (not ?v_42)) (?v_38 (not ?v_33)) (?v_63 (not ?v_49)) (?v_111 (< (+ (- (* 22 x19) (* 19 x7)) (* 4 x21)) (- 36))) (?v_94 (<= (+ (- (* (- 7) x12) (* 37 x6)) (* 33 x11)) (- 38))) (?v_78 (< (- (+ ?v_76 (* 17 x11)) (* 42 x3)) (- 5))) (?v_125 (not ?v_34)) (?v_84 (distinct (- (+ (* (- 14) x6) (* 14 x25)) (* 30 x27)) (- 17)))) (let ((?v_115 (not ?v_84)) (?v_153 (not ?v_78)) (?v_131 (<= (+ (- (* (- 19) x28) (* 15 x8)) (* 28 x19)) (- 25))) (?v_143 (not ?v_111)) (?v_141 (<= (+ (* 37 x20) (* 9 x18) (* 19 x22)) (- 12)))) (let ((?v_155 (not ?v_131))) (and (and (and (and (and (and (and (and (and (and (and (and (and (and (and (and (and (and (and (and (and (and (and (and (and (and (and (and (and (and (and (and (and (and (and (and (and (and (and (and (and (and (and (and (and (and (and (and (and (and (and (and (and (and (and (and (and (and (and (and (and (and (and (and (and (and (and (and (and (and (and (and (and (and (and (and (and (and (and (and (and (and (and (and (and (and (and (and (and (and (and (and (and (and (and (and (and (and (and (and (and (and (and (and (and (and (and (and (and (and (and (and (and (and (and (and (and (and (and (and (and (and (and (and (and (and (and (and (and (and (and (and (and (and (and (and (and (and (and (and (and (and (and (and (and (and (and (and (and (and (and (and (and (and (and (and (and (and (and (and (and (and (and (and (and (and (and (and (and (and (and (and (and (and (and (and (and (and (and (and (and (and (and (and (and (and (and (and (and (and (and (and (and (and (and (and (and (and (and (and (and (and (and (and (and (and (and (and (and (and (and (and (and (and (and (and (and (and (and (and (and (and (and (and (and (and (and (and (and (and (and (and (and (and (and (and (and (and (and (and (and (and (and (and (and (and (and (and (and (and (and (and (and (and (and (and (and (and (and (and (and (and (and (and (and (and (and (and (and (and (and (and (and (and (and (and (and (and (and (and (and (and (and (and (and (and (and (and (and (and (and (and (and (and (and (and (and (and (and (and (and (and (and (and (and (and (and (and (and (and (and (and (and (and (and (and (and (and (and (and (and (and (and (and (and (and (and (and (and (and (and (and (and (and (and (and (and (and (and (and (and (and (and (and (and (and (and (and (and (and (and (and (and (and (and (and (and (and (and (or (or ?v_0 ?v_61) ?v_1) (or (or ?v_11 ?v_6) ?v_122)) (or (or ?v_0 ?v_14) ?v_2)) (or (or ?v_23 ?v_3) ?v_80)) (or (or ?v_9 ?v_1) ?v_18)) (or (or ?v_24 ?v_146) ?v_5)) (or (or ?v_74 P6) ?v_31)) (or (or ?v_68 ?v_8) ?v_22)) (or (or ?v_3 ?v_10) ?v_75)) (or (or P8 ?v_92) ?v_19)) (or (or ?v_107 ?v_6) ?v_16)) (or (or ?v_7 P28) ?v_57)) (or (or ?v_8 ?v_33) ?v_17)) (or (or P23 ?v_116) P11)) (or (or ?v_69 ?v_9) ?v_10)) (or (or ?v_66 ?v_136) ?v_79)) (or (or P3 ?v_56) ?v_10)) (or (or P12 ?v_147) P18)) (or (or ?v_9 ?v_27) ?v_1)) (or (or ?v_128 ?v_50) ?v_49)) (or (or ?v_21 ?v_20) ?v_137)) (or (or ?v_14 ?v_55) ?v_25)) (or (or ?v_15 ?v_117) ?v_102)) (or (or ?v_16 ?v_28) ?v_17)) (or (or ?v_18 ?v_19) ?v_54)) (or (or ?v_52 ?v_99) ?v_148)) (or (or ?v_20 ?v_3) ?v_39)) (or (or P12 P26) ?v_72)) (or (or ?v_90 ?v_41) ?v_144)) (or (or ?v_23 P4) P3)) (or (or ?v_34 ?v_24) ?v_71)) (or (or P22 ?v_35) ?v_100)) (or (or ?v_29 ?v_149) ?v_32)) (or (or ?v_26 ?v_9) ?v_27)) (or (or ?v_28 P7) ?v_29)) (or (or ?v_14 P14) ?v_22)) (or (or ?v_9 ?v_37) P23)) (or (or P18 ?v_30) P22)) (or (or P28 P19) P12)) (or (or ?v_31 ?v_32) ?v_38)) (or (or ?v_34 P23) P25)) (or (or ?v_21 ?v_35) P5)) (or (or ?v_40 ?v_25) ?v_37)) (or (or ?v_30 ?v_38) ?v_17)) (or (or ?v_58 ?v_60) ?v_59)) (or (or ?v_40 ?v_21) ?v_62)) (or (or ?v_43 ?v_53) P11)) (or (or ?v_112 ?v_11) ?v_42)) (or (or ?v_43 ?v_46) ?v_10)) (or (or P0 ?v_45) ?v_46)) (or (or P15 ?v_126) ?v_48)) (or (or ?v_45 ?v_63) P11)) (or (or ?v_50 P16) ?v_51)) (or (or ?v_52 P13) ?v_83)) (or (or ?v_95 ?v_48) ?v_114)) (or (or P12 ?v_35) ?v_54)) (or (or ?v_118 ?v_56) ?v_50)) (or (or ?v_9 ?v_111) ?v_8)) (or (or P12 ?v_82) ?v_7)) (or (or ?v_57 ?v_108) ?v_28)) (or (or ?v_46 ?v_20) ?v_58)) (or (or ?v_11 ?v_59) P29)) (or (or P9 ?v_21) ?v_60)) (or (or ?v_152 ?v_110) ?v_1)) (or (or ?v_38 ?v_11) ?v_9)) (or (or P2 ?v_101) ?v_67)) (or (or P29 ?v_60) ?v_63)) (or (or ?v_70 ?v_89) P15)) (or (or ?v_64 ?v_77) ?v_66)) (or (or P3 ?v_21) ?v_67)) (or (or P2 ?v_46) P18)) (or (or ?v_68 ?v_10) ?v_58)) (or (or ?v_135 ?v_19) ?v_34)) (or (or P24 ?v_30) P13)) (or (or ?v_33 ?v_70) ?v_71)) (or (or ?v_42 ?v_94) ?v_7)) (or (or ?v_72 ?v_73) ?v_53)) (or (or ?v_74 ?v_19) ?v_119)) (or (or ?v_78 ?v_30) ?v_91)) (or (or ?v_78 P8) ?v_77)) (or (or ?v_79 P14) ?v_133)) (or (or ?v_67 P13) ?v_19)) (or (or ?v_81 ?v_96) P17)) (or (or P27 ?v_50) ?v_34)) (or (or ?v_3 ?v_0) ?v_17)) (or (or ?v_93 ?v_63) P29)) (or (or ?v_59 ?v_10) ?v_81)) (or (or ?v_125 ?v_120) ?v_115)) (or (or ?v_86 ?v_82) ?v_83)) (or (or ?v_8 ?v_132) ?v_64)) (or (or ?v_84 ?v_17) ?v_63)) (or (or P7 ?v_97) ?v_78)) (or (or ?v_59 ?v_85) ?v_24)) (or (or ?v_86 ?v_68) P24)) (or (or P20 ?v_87) P19)) (or (or ?v_153 ?v_62) ?v_88)) (or (or ?v_139 ?v_89) ?v_90)) (or (or ?v_91 P17) ?v_15)) (or (or ?v_92 ?v_72) ?v_64)) (or (or ?v_93 ?v_87) ?v_73)) (or (or ?v_48 P15) P25)) (or (or ?v_10 ?v_1) ?v_94)) (or (or ?v_91 ?v_22) ?v_123)) (or (or ?v_96 ?v_28) ?v_27)) (or (or ?v_58 ?v_145) P0)) (or (or ?v_37 ?v_62) ?v_38)) (or (or ?v_77 ?v_98) P12)) (or (or ?v_29 ?v_99) ?v_88)) (or (or ?v_100 ?v_101) ?v_78)) (or (or ?v_102 P12) ?v_2)) (or (or ?v_89 ?v_24) ?v_35)) (or (or ?v_129 ?v_154) ?v_103)) (or (or ?v_63 ?v_94) ?v_82)) (or (or ?v_5 ?v_104) ?v_127)) (or (or ?v_109 ?v_105) ?v_106)) (or (or ?v_89 P3) ?v_69)) (or (or ?v_20 ?v_107) ?v_108)) (or (or ?v_32 ?v_109) ?v_87)) (or (or ?v_105 ?v_63) ?v_87)) (or (or P28 ?v_41) ?v_29)) (or (or ?v_109 P24) ?v_74)) (or (or P8 ?v_110) ?v_64)) (or (or ?v_23 ?v_63) ?v_88)) (or (or P28 ?v_111) ?v_25)) (or (or ?v_124 ?v_105) ?v_64)) (or (or ?v_8 ?v_112) ?v_113)) (or (or ?v_8 ?v_27) ?v_113)) (or (or P16 ?v_89) ?v_69)) (or (or ?v_106 P24) P16)) (or (or ?v_24 P22) ?v_114)) (or (or ?v_87 ?v_50) ?v_67)) (or (or ?v_80 ?v_114) ?v_115)) (or (or ?v_19 ?v_116) ?v_58)) (or ?v_121 ?v_117)) (or (or ?v_118 P11) ?v_52)) (or (or ?v_19 ?v_2) ?v_119)) (or (or ?v_75 ?v_120) ?v_8)) (or (or P22 ?v_72) P25)) (or ?v_121 ?v_26)) (or (or ?v_86 P26) ?v_87)) (or (or ?v_118 ?v_104) ?v_151)) (or (or P3 ?v_32) ?v_21)) (or (or ?v_108 ?v_80) ?v_33)) (or (or ?v_103 ?v_123) ?v_60)) (or (or P21 ?v_28) P26)) (or (or ?v_55 ?v_131) ?v_62)) (or (or P10 P2) ?v_130)) (or (or ?v_113 ?v_124) ?v_64)) (or (or ?v_125 ?v_63) ?v_107)) (or (or ?v_37 ?v_112) ?v_97)) (or (or ?v_26 ?v_37) ?v_52)) (or (or ?v_74 ?v_9) ?v_75)) (or (or P7 ?v_33) ?v_90)) (or (or ?v_126 ?v_127) P29)) (or (or ?v_18 ?v_122) ?v_56)) (or (or ?v_18 ?v_128) ?v_88)) (or (or ?v_68 ?v_129) ?v_60)) (or (or ?v_96 P6) ?v_89)) (or (or ?v_89 ?v_19) ?v_62)) (or (or ?v_39 ?v_130) ?v_68)) (or (or P24 ?v_131) ?v_59)) (or (or ?v_35 ?v_38) ?v_130)) (or (or ?v_86 ?v_14) P26)) (or (or ?v_81 ?v_23) ?v_38)) (or (or ?v_74 ?v_124) ?v_132)) (or (or ?v_133 ?v_122) ?v_134)) (or (or ?v_42 P16) ?v_135)) (or (or ?v_94 ?v_113) P3)) (or (or ?v_75 P27) ?v_29)) (or (or ?v_39 ?v_25) ?v_21)) (or (or ?v_74 ?v_140) ?v_136)) (or (or ?v_99 ?v_88) ?v_30)) (or (or ?v_101 ?v_90) ?v_143)) (or (or ?v_137 ?v_79) ?v_42)) (or (or ?v_106 ?v_32) P12)) (or (or ?v_0 ?v_86) ?v_133)) (or (or ?v_91 ?v_128) ?v_119)) (or (or ?v_37 ?v_54) ?v_116)) (or (or ?v_128 ?v_137) ?v_120)) (or (or ?v_138 ?v_66) ?v_90)) (or (or ?v_113 ?v_89) ?v_22)) (or (or ?v_141 ?v_139) ?v_128)) (or (or ?v_11 ?v_24) ?v_50)) (or (or ?v_110 ?v_140) (not ?v_141))) (or (or ?v_127 ?v_105) ?v_102)) (or (or ?v_133 ?v_34) ?v_33)) (or (or ?v_71 ?v_1) P1)) (or (or P0 ?v_142) P7)) (or (or ?v_106 ?v_91) ?v_26)) (or (or ?v_143 ?v_14) ?v_37)) (or (or ?v_137 ?v_136) P3)) (or (or ?v_139 ?v_85) ?v_124)) (or (or ?v_62 ?v_129) ?v_95)) (or (or ?v_61 ?v_95) P17)) (or (or P21 ?v_106) ?v_19)) (or (or ?v_128 ?v_30) P22)) (or (or ?v_35 ?v_92) ?v_104)) (or (or ?v_33 ?v_95) ?v_126)) (or (or ?v_85 ?v_1) ?v_110)) (or (or ?v_6 ?v_89) P26)) (or (or ?v_56 ?v_83) ?v_23)) (or (or ?v_94 ?v_98) ?v_32)) (or (or ?v_29 ?v_90) ?v_7)) (or (or P17 ?v_14) ?v_32)) (or (or ?v_118 ?v_17) ?v_52)) (or (or ?v_105 ?v_144) ?v_143)) (or (or ?v_28 P21) ?v_61)) (or (or ?v_145 ?v_66) ?v_52)) (or (or ?v_132 ?v_95) ?v_119)) (or (or ?v_0 ?v_77) ?v_38)) (or (or ?v_138 ?v_37) ?v_146)) (or (or P11 ?v_137) ?v_10)) (or (or ?v_147 P2) P6)) (or (or ?v_51 P19) ?v_103)) (or (or ?v_16 ?v_75) ?v_50)) (or (or ?v_67 P15) ?v_107)) (or (or ?v_5 ?v_21) ?v_42)) (or (or ?v_117 ?v_14) ?v_128)) (or (or P18 ?v_103) ?v_30)) (or (or ?v_69 ?v_3) ?v_123)) (or (or P14 ?v_80) P18)) (or (or ?v_147 ?v_15) ?v_69)) (or (or ?v_52 ?v_94) ?v_104)) (or (or ?v_11 ?v_23) ?v_150)) (or (or P8 ?v_111) P23)) (or (or ?v_67 ?v_27) ?v_107)) (or (or ?v_11 ?v_118) ?v_102)) (or (or ?v_14 P24) ?v_141)) (or (or ?v_115 ?v_27) ?v_145)) (or (or ?v_83 ?v_61) ?v_25)) (or (or P12 P2) ?v_126)) (or (or ?v_14 ?v_111) ?v_114)) (or (or ?v_92 ?v_90) ?v_55)) (or (or ?v_19 ?v_86) ?v_145)) (or (or ?v_127 ?v_85) ?v_91)) (or (or P19 ?v_27) ?v_91)) (or (or ?v_138 ?v_61) ?v_39)) (or (or ?v_29 P18) ?v_136)) (or (or ?v_103 P9) ?v_126)) (or (or ?v_45 ?v_42) ?v_103)) (or (or ?v_119 ?v_123) ?v_26)) (or (or ?v_23 ?v_104) ?v_11)) (or (or P24 (not ?v_94)) ?v_27)) (or (or ?v_130 ?v_95) ?v_28)) (or (or P3 P2) ?v_42)) (or (or ?v_99 ?v_56) ?v_139)) (or (or ?v_104 ?v_145) ?v_124)) (or (or P8 ?v_135) ?v_148)) (or (or ?v_74 ?v_22) ?v_67)) (or (or ?v_118 ?v_37) P4)) (or (or ?v_41 ?v_118) ?v_136)) (or (or ?v_133 ?v_78) ?v_124)) (or (or ?v_60 ?v_32) ?v_133)) (or (or ?v_83 ?v_1) P8)) (or (or ?v_138 ?v_45) ?v_10)) (or (or ?v_140 ?v_24) ?v_90)) (or (or ?v_140 P7) P23)) (or (or ?v_15 ?v_119) ?v_138)) (or (or ?v_149 ?v_74) ?v_6)) (or (or ?v_111 ?v_1) P3)) (or (or ?v_98 ?v_114) ?v_79)) (or (or ?v_21 ?v_54) ?v_18)) (or (or ?v_144 ?v_138) ?v_150)) (or (or ?v_88 ?v_85) ?v_33)) (or (or P17 ?v_116) P5)) (or (or P21 ?v_25) ?v_0)) (or (or ?v_116 ?v_145) ?v_140)) (or (or ?v_112 ?v_107) ?v_140)) (or (or P21 ?v_83) ?v_24)) (or (or P23 ?v_57) ?v_134)) (or (or ?v_95 ?v_143) ?v_82)) (or (or (not ?v_0) P29) ?v_155)) (or (or ?v_88 ?v_151) P9)) (or (or ?v_16 ?v_87) ?v_28)) (or (or P8 ?v_72) ?v_70)) (or (or ?v_136 P21) ?v_129)) (or (or ?v_9 P25) ?v_11)) (or (or ?v_37 ?v_83) P18)) (or (or ?v_131 P24) ?v_145)) (or (or ?v_90 ?v_25) ?v_69)) (or (or ?v_26 ?v_46) ?v_95)) (or (or ?v_90 ?v_56) ?v_34)) (or (or ?v_58 ?v_107) ?v_120)) (or (or ?v_126 ?v_125) ?v_152)) (or (or ?v_145 ?v_24) ?v_39)) (or (or ?v_77 ?v_19) ?v_74)) (or (or ?v_49 ?v_136) ?v_124)) (or (or ?v_32 ?v_131) ?v_62)) (or (or ?v_2 ?v_153) ?v_111)) (or (or ?v_26 ?v_128) ?v_143)) (or (or ?v_77 ?v_91) ?v_14)) (or (or P16 ?v_77) ?v_64)) (or (or ?v_103 ?v_59) P20)) (or (or P16 ?v_67) ?v_117)) (or (or ?v_11 P27) ?v_100)) (or (or P25 ?v_101) ?v_31)) (or (or ?v_111 P13) ?v_128)) (or (or ?v_42 ?v_2) ?v_130)) (or (or P21 P15) ?v_69)) (or (or ?v_154 ?v_85) P15)) (or (or ?v_27 ?v_103) ?v_88)) (or (or ?v_17 ?v_100) ?v_143)) (or (or ?v_74 P23) ?v_35)) (or (or ?v_21 ?v_117) ?v_38)) (or (or P23 ?v_105) ?v_7)) (or (or ?v_134 ?v_151) ?v_116)) (or (or ?v_77 ?v_54) ?v_136)) (or (or ?v_37 ?v_41) ?v_1)) (or (or ?v_79 ?v_58) ?v_35)) (or (or ?v_1 ?v_101) P3)) (or (or ?v_50 P2) ?v_89)) (or (or ?v_98 ?v_101) ?v_32)) (or (or ?v_37 P11) ?v_38)) (or (or ?v_81 P13) ?v_84)) (or (or ?v_147 ?v_94) ?v_149)) (or (or ?v_104 ?v_126) ?v_6)) (or (or ?v_21 ?v_90) ?v_75)) (or (or ?v_120 ?v_41) ?v_147)) (or (or P18 P10) ?v_22)) (or (or ?v_136 ?v_35) P28)) (or (or ?v_54 ?v_55) ?v_140)) (or (or P29 ?v_52) ?v_20)) (or (or ?v_100 ?v_123) P8)) (or (or ?v_102 ?v_104) ?v_54)) (or (or ?v_128 ?v_155) ?v_97)) (or (or ?v_73 P23) ?v_23)) (or (or P18 ?v_82) ?v_14)) (or (or P29 P9) ?v_96)) (or (or ?v_130 ?v_119) P7)) (or (or ?v_115 ?v_123) ?v_46)) (or (or ?v_72 ?v_58) ?v_19)) (or (or ?v_109 ?v_125) ?v_155)) (or (or P13 ?v_70) ?v_101)) (or (or ?v_25 ?v_23) ?v_93)) (or (or ?v_43 ?v_33) ?v_139)) (or (or ?v_127 P21) ?v_148)) (or (or ?v_110 P24) P1)) (or (or ?v_49 P17) ?v_80)) (or (or ?v_52 ?v_124) ?v_126)) (or (or ?v_62 ?v_55) P23)) (or (or P23 ?v_43) ?v_31)) (or (or ?v_134 ?v_87) P26)) (or (or ?v_134 ?v_58) ?v_1)) (or (or ?v_141 ?v_81) ?v_51)) (or (or ?v_14 ?v_24) ?v_21)) (or (or ?v_149 ?v_98) ?v_73)) (or (or ?v_29 ?v_85) P21)) (or (or ?v_21 ?v_69) ?v_10)) (or (or ?v_33 ?v_115) P12)) (or (or ?v_33 ?v_108) ?v_79)) (or (or ?v_84 ?v_135) ?v_48)) (or (or P10 P4) ?v_30)) (or (or ?v_96 ?v_35) ?v_39)) (or (or P12 P10) ?v_73)) (or (or ?v_74 ?v_46) ?v_134)) (or (or ?v_11 ?v_120) ?v_27)) (or (or ?v_139 P3) ?v_130)) (or (or P6 ?v_124) ?v_83)) (or (or ?v_5 P10) ?v_93)) (or (or ?v_85 ?v_100) ?v_10)))))))))))))))))))))))
(check-sat)
(exit)
